(set-logic QF_S)
(set-option :produce-models true)

(declare-fun s2320 () String)
(declare-fun s2740 () String)
(declare-fun s2353 () String)
(declare-fun s4597 () String)
(declare-fun s538 () String)
(declare-fun s4554 () String)
(declare-fun s4531 () String)
(declare-fun s3252 () String)
(declare-fun s2743 () String)
(declare-fun s5429 () String)
(declare-fun s4620 () String)
(declare-fun s2892 () String)
(declare-fun s4663 () String)
(declare-fun s2763 () String)
(declare-fun s846 () String)
(declare-fun s4534 () String)
(declare-fun s1673 () String)
(declare-fun s1573 () String)
(declare-fun s3757 () String)
(declare-fun s1693 () String)
(declare-fun s4666 () String)
(declare-fun s2982 () String)
(declare-fun s2872 () String)
(declare-fun s4600 () String)
(declare-fun s4686 () String)
(declare-fun s2869 () String)
(declare-fun s3628 () String)
(declare-fun s2158 () String)
(declare-fun s2803 () String)
(declare-fun s1151 () String)
(declare-fun s635 () String)
(declare-fun s791 () String)
(declare-fun s655 () String)
(declare-fun s435 () String)
(declare-fun s1073 () String)
(declare-fun s3148 () String)
(declare-fun s698 () String)
(declare-fun s5002 () String)
(declare-fun s5106 () String)
(declare-fun s1903 () String)
(declare-fun s4979 () String)
(declare-fun s5050 () String)
(declare-fun s2806 () String)
(declare-fun s5327 () String)
(declare-fun s1617 () String)
(declare-fun s1900 () String)
(declare-fun s4481 () String)
(declare-fun s5200 () String)
(declare-fun s721 () String)
(declare-fun s4833 () String)
(declare-fun s2826 () String)
(declare-fun s3663 () String)
(declare-fun s4813 () String)
(declare-fun s1940 () String)
(declare-fun s701 () String)
(declare-fun s4754 () String)
(declare-fun s3002 () String)
(declare-fun s755 () String)
(declare-fun s3045 () String)
(declare-fun s5395 () String)
(declare-fun s4757 () String)
(declare-fun s3171 () String)
(declare-fun s1803 () String)
(declare-fun s752 () String)
(declare-fun s2285 () String)
(declare-fun s1780 () String)
(declare-fun s1846 () String)
(declare-fun s3151 () String)
(declare-fun s2252 () String)
(declare-fun s1849 () String)
(declare-fun s3048 () String)
(declare-fun s5471 () String)
(declare-fun s3068 () String)
(declare-fun s1869 () String)
(declare-fun s2388 () String)
(declare-fun s5064 () String)
(declare-fun s2041 () String)
(declare-fun s1783 () String)
(declare-fun s4717 () String)
(declare-fun s2923 () String)
(declare-fun s4810 () String)
(declare-fun s4876 () String)
(declare-fun s3501 () String)
(declare-fun s514 () String)
(declare-fun s2979 () String)
(declare-fun s1614 () String)
(declare-fun s1724 () String)
(declare-fun s3102 () String)
(declare-fun s3595 () String)
(declare-fun s1184 () String)
(declare-fun s3219 () String)
(declare-fun s3305 () String)
(declare-fun s979 () String)
(declare-fun s4720 () String)
(declare-fun s4930 () String)
(declare-fun s1999 () String)
(declare-fun s1670 () String)
(declare-fun s579 () String)
(declare-fun s3459 () String)
(declare-fun s1109 () String)
(declare-fun s632 () String)
(declare-fun s4879 () String)
(declare-fun s4982 () String)
(declare-fun s1576 () String)
(declare-fun s576 () String)
(declare-fun s937 () String)
(declare-fun s1976 () String)
(declare-fun s440 () String)
(declare-fun s5360 () String)
(declare-fun s517 () String)
(declare-fun s1727 () String)
(declare-fun s1937 () String)
(declare-fun s2116 () String)
(declare-fun s4478 () String)
(declare-fun s147 () String)
(declare-fun s2926 () String)
(declare-fun s4933 () String)
(declare-fun s3099 () String)
(declare-fun s4899 () String)
(declare-fun s3392 () String)
(declare-fun s127 () String)

(assert (= s2388 s147 ))
(assert (= s2806 s2803 ))
(assert (= s1617 s1614 ))
(assert (= s3595 s147 ))
(assert (not (= s3305 s147 )))
(assert (not (= s3501 s147 )))
(assert (= s127 s579 ))
(assert (= s2743 s2740 ))
(assert (= s3151 s3148 ))
(assert (= s4481 s4478 ))
(assert (= s517 s514 ))
(assert (not (= s127 s635 )))
(assert (= s2116 s127 ))
(assert (= s1576 s1573 ))
(assert (= s127 "(" ))
(assert (= s1673 s1670 ))
(assert (= s1727 s1724 ))
(assert (= s440 s435 ))
(assert (not (= s127 s755 )))
(assert (not (= s5395 s127 )))
(assert (= s4600 s4597 ))
(assert (= s2320 s147 ))
(assert (= s1999 s127 ))
(assert (not (= s147 s4686 )))
(assert (not (= s5360 s127 )))
(assert (not (= s3305 s127 )))
(assert (not (= s3501 s127 )))
(assert (= s5064 s127 ))
(assert (= s937 s127 ))
(assert (= s1783 s1780 ))
(assert (not (= s2041 s147 )))
(assert (not (= s2353 s127 )))
(assert (not (= s1109 s127 )))
(assert (= s3102 s3099 ))
(assert (not (= s147 s1869 )))
(assert (= s791 s127 ))
(assert (not (= s127 s2743 )))
(assert (not (= s1151 s127 )))
(assert (not (= s127 s2806 )))
(assert (= s4757 s4754 ))
(assert (not (= s127 s701 )))
(assert (not (= s3595 s127 )))
(assert (not (= s127 s3151 )))
(assert (= s3048 s3045 ))
(assert (= s1976 s127 ))
(assert (not (= s2320 s127 )))
(assert (not (= s127 s2982 )))
(assert (= s2252 s147 ))
(assert (not (= s846 s127 )))
(assert (not (= s3392 s147 )))
(assert (= s5327 s147 ))
(assert (not (= s127 s1673 )))
(assert (not (= s3663 s127 )))
(assert (= s4982 s4979 ))
(assert (not (= s127 s4534 )))
(assert (not (= s127 s4720 )))
(assert (not (= s147 s2892 )))
(assert (not (= s3757 s127 )))
(assert (not (= s147 s4620 )))
(assert (not (= s5106 s127 )))
(assert (= s3459 s127 ))
(assert (= s127 s440 ))
(assert (not (= s2285 s127 )))
(assert (not (= s979 s147 )))
(assert (not (= s147 s4554 )))
(assert (not (= s147 s1803 )))
(assert (= s635 s632 ))
(assert (= s1151 s147 ))
(assert (= s127 s1617 ))
(assert (not (= s127 s1903 )))
(assert (not (= s147 s2826 )))
(assert (= s2872 s2869 ))
(assert (= s127 s4757 ))
(assert (= s5429 s127 ))
(assert (= s5471 s147 ))
(assert (not (= s147 s3068 )))
(assert (= s1849 s1846 ))
(assert (= s1940 s1937 ))
(assert (= s701 s698 ))
(assert (not (= s1073 s127 )))
(assert (= s2982 s2979 ))
(assert (= s755 s752 ))
(assert (not (= s147 s655 )))
(assert (not (= s3663 s147 )))
(assert (not (= s127 s4600 )))
(assert (not (= s127 s1783 )))
(assert (not (= s5327 s127 )))
(assert (not (= s5471 s127 )))
(assert (not (= s127 s2872 )))
(assert (not (= s979 s127 )))
(assert (not (= s147 s1693 )))
(assert (= s127 s1727 ))
(assert (not (= s127 s4813 )))
(assert (= s4879 s4876 ))
(assert (= s127 s1576 ))
(assert (not (= s846 s147 )))
(assert (not (= s2158 s127 )))
(assert (not (= s147 s3002 )))
(assert (not (= s127 s3048 )))
(assert (not (= s127 s517 )))
(assert (not (= s127 s4879 )))
(assert (not (= s127 s4933 )))
(assert (not (= s147 s538 )))
(assert (= s4666 s4663 ))
(assert (not (= s147 s3219 )))
(assert (not (= s147 s5002 )))
(assert (= s4813 s4810 ))
(assert (not (= s127 s3102 )))
(assert (not (= s147 s4833 )))
(assert (= s4534 s4531 ))
(assert (not (= s2388 s127 )))
(assert (not (= s3757 s147 )))
(assert (not (= s147 s721 )))
(assert (not (= s5106 s147 )))
(assert (not (= s2158 s147 )))
(assert (not (= s3252 s127 )))
(assert (not (= s5200 s127 )))
(assert (not (= s2252 s127 )))
(assert (not (= s2041 s127 )))
(assert (= s127 s2926 ))
(assert (= s4720 s4717 ))
(assert (not (= s127 s4982 )))
(assert (= s127 s4481 ))
(assert (not (= s5395 s147 )))
(assert (= s2926 s2923 ))
(assert (not (= s147 s5050 )))
(assert (= s1073 s147 ))
(assert (not (= s127 s1940 )))
(assert (= s1903 s1900 ))
(assert (not (= s1184 s127 )))
(assert (not (= s5200 s147 )))
(assert (not (= s3252 s147 )))
(assert (not (= s3392 s127 )))
(assert (not (= s127 s4666 )))
(assert (not (= s5471 s147 )))
(assert (not (= s147 s3171 )))
(assert (not (= s147 s4899 )))
(assert (= s579 s576 ))
(assert (not (= s3628 s127 )))
(assert (not (= s127 s1849 )))
(assert (not (= s147 s2763 )))
(assert (= s4933 s4930 ))
(assert (= s147 ")" ))


(check-sat)
(get-model)
